130 6653
1 41 39 117 112 105 62 115 28 83 3 114 108 8 18 35 54 4 106 38 92 73 52 9 57 82 101 123 111 119 84 36 113 32 77 103 81 12 87 65 56 75 74 99 91 72 58 49 53 120 51 60 42 44 23 33 21 126 30 59 90 125 85 66 78 121 13 67 96 14 10 102 6 55 122 40 47 22 37 93 20 46 80 118 2 50 130 71 128 16 45 5 11 76 109 61 129 124 64 69 86 88 26 97 7 70 63 68 48 25 98 110 89 94 29 24 15 95 79 116 100 19 27 31 17 34 43 107 104 127 
